p cnf 181 1008
1 -101 -77 0
-1 101 -77 0
1 101 -78 0
-1 -101 -78 0
20 -101 -83 0
-20 101 -83 0
20 101 -84 0
-20 -101 -84 0
39 -101 -89 0
-39 101 -89 0
39 101 -90 0
-39 -101 -90 0
58 -101 -95 0
-58 101 -95 0
58 101 -96 0
-58 -101 -96 0
2 -102 -77 0
-2 102 -77 0
2 102 -78 0
-2 -102 -78 0
21 -102 -83 0
-21 102 -83 0
21 102 -84 0
-21 -102 -84 0
40 -102 -89 0
-40 102 -89 0
40 102 -90 0
-40 -102 -90 0
59 -102 -95 0
-59 102 -95 0
59 102 -96 0
-59 -102 -96 0
3 -103 -77 0
-3 103 -77 0
3 103 -78 0
-3 -103 -78 0
22 -103 -83 0
-22 103 -83 0
22 103 -84 0
-22 -103 -84 0
41 -103 -89 0
-41 103 -89 0
41 103 -90 0
-41 -103 -90 0
60 -103 -95 0
-60 103 -95 0
60 103 -96 0
-60 -103 -96 0
4 -77 0
4 -78 0
77 -77 0
78 -78 0
23 -83 0
23 -84 0
83 -83 0
84 -84 0
42 -89 0
42 -90 0
89 -89 0
90 -90 0
61 -95 0
61 -96 0
95 -95 0
96 -96 0
-5 -77 0
-5 -78 0
77 -77 0
78 -78 0
-24 -83 0
-24 -84 0
83 -83 0
84 -84 0
-43 -89 0
-43 -90 0
89 -89 0
90 -90 0
-62 -95 0
-62 -96 0
95 -95 0
96 -96 0
-6 -77 0
-6 -78 0
77 -77 0
78 -78 0
-25 -83 0
-25 -84 0
83 -83 0
84 -84 0
-44 -89 0
-44 -90 0
89 -89 0
90 -90 0
-63 -95 0
-63 -96 0
95 -95 0
96 -96 0
7 -104 -77 0
-7 104 -77 0
7 104 -78 0
-7 -104 -78 0
26 -104 -83 0
-26 104 -83 0
26 104 -84 0
-26 -104 -84 0
45 -104 -89 0
-45 104 -89 0
45 104 -90 0
-45 -104 -90 0
64 -104 -95 0
-64 104 -95 0
64 104 -96 0
-64 -104 -96 0
8 -105 -77 0
-8 105 -77 0
8 105 -78 0
-8 -105 -78 0
27 -105 -83 0
-27 105 -83 0
27 105 -84 0
-27 -105 -84 0
46 -105 -89 0
-46 105 -89 0
46 105 -90 0
-46 -105 -90 0
65 -105 -95 0
-65 105 -95 0
65 105 -96 0
-65 -105 -96 0
9 -77 0
9 -78 0
77 -77 0
78 -78 0
28 -83 0
28 -84 0
83 -83 0
84 -84 0
47 -89 0
47 -90 0
89 -89 0
90 -90 0
66 -95 0
66 -96 0
95 -95 0
96 -96 0
10 -77 0
10 -78 0
77 -77 0
78 -78 0
29 -83 0
29 -84 0
83 -83 0
84 -84 0
48 -89 0
48 -90 0
89 -89 0
90 -90 0
67 -95 0
67 -96 0
95 -95 0
96 -96 0
11 -77 0
11 -78 0
77 -77 0
78 -78 0
30 -83 0
30 -84 0
83 -83 0
84 -84 0
49 -89 0
49 -90 0
89 -89 0
90 -90 0
68 -95 0
68 -96 0
95 -95 0
96 -96 0
12 -77 0
12 -78 0
77 -77 0
78 -78 0
31 -83 0
31 -84 0
83 -83 0
84 -84 0
50 -89 0
50 -90 0
89 -89 0
90 -90 0
69 -95 0
69 -96 0
95 -95 0
96 -96 0
13 -106 -77 0
-13 106 -77 0
13 106 -78 0
-13 -106 -78 0
32 -106 -83 0
-32 106 -83 0
32 106 -84 0
-32 -106 -84 0
51 -106 -89 0
-51 106 -89 0
51 106 -90 0
-51 -106 -90 0
70 -106 -95 0
-70 106 -95 0
70 106 -96 0
-70 -106 -96 0
14 -77 0
14 -78 0
77 -77 0
78 -78 0
33 -83 0
33 -84 0
83 -83 0
84 -84 0
52 -89 0
52 -90 0
89 -89 0
90 -90 0
71 -95 0
71 -96 0
95 -95 0
96 -96 0
15 -77 0
15 -78 0
77 -77 0
78 -78 0
34 -83 0
34 -84 0
83 -83 0
84 -84 0
53 -89 0
53 -90 0
89 -89 0
90 -90 0
72 -95 0
72 -96 0
95 -95 0
96 -96 0
16 -77 0
16 -78 0
77 -77 0
78 -78 0
35 -83 0
35 -84 0
83 -83 0
84 -84 0
54 -89 0
54 -90 0
89 -89 0
90 -90 0
73 -95 0
73 -96 0
95 -95 0
96 -96 0
17 -77 0
17 -78 0
77 -77 0
78 -78 0
36 -83 0
36 -84 0
83 -83 0
84 -84 0
55 -89 0
55 -90 0
89 -89 0
90 -90 0
74 -95 0
74 -96 0
95 -95 0
96 -96 0
18 -107 -77 0
-18 107 -77 0
18 107 -78 0
-18 -107 -78 0
37 -107 -83 0
-37 107 -83 0
37 107 -84 0
-37 -107 -84 0
56 -107 -89 0
-56 107 -89 0
56 107 -90 0
-56 -107 -90 0
75 -107 -95 0
-75 107 -95 0
75 107 -96 0
-75 -107 -96 0
19 -77 0
19 -78 0
77 -77 0
78 -78 0
38 -83 0
38 -84 0
83 -83 0
84 -84 0
57 -89 0
57 -90 0
89 -89 0
90 -90 0
76 -95 0
76 -96 0
95 -95 0
96 -96 0
-158 77 0
158 -77 0
-159 78 0
158 -78 0
-158 -77 0
-159 -78 0
-164 77 158 0
164 -77 0
164 -158 0
-165 78 159 0
165 -78 0
165 -159 0
-164 -83 0
-165 -84 0
-170 83 164 0
170 -83 0
170 -164 0
-171 84 165 0
171 -84 0
171 -165 0
-170 -89 0
-171 -90 0
-176 89 170 0
176 -89 0
176 -170 0
-177 90 171 0
177 -90 0
177 -171 0
-176 -95 0
-177 -96 0
176 0
177 0
1 -79 0
1 -80 0
79 -79 0
80 -80 0
20 -85 0
20 -86 0
85 -85 0
86 -86 0
39 -91 0
39 -92 0
91 -91 0
92 -92 0
58 -97 0
58 -98 0
97 -97 0
98 -98 0
-2 -79 0
-2 -80 0
79 -79 0
80 -80 0
-21 -85 0
-21 -86 0
85 -85 0
86 -86 0
-40 -91 0
-40 -92 0
91 -91 0
92 -92 0
-59 -97 0
-59 -98 0
97 -97 0
98 -98 0
-3 -79 0
-3 -80 0
79 -79 0
80 -80 0
-22 -85 0
-22 -86 0
85 -85 0
86 -86 0
-41 -91 0
-41 -92 0
91 -91 0
92 -92 0
-60 -97 0
-60 -98 0
97 -97 0
98 -98 0
4 -79 0
4 -80 0
79 -79 0
80 -80 0
23 -85 0
23 -86 0
85 -85 0
86 -86 0
42 -91 0
42 -92 0
91 -91 0
92 -92 0
61 -97 0
61 -98 0
97 -97 0
98 -98 0
-5 -79 0
-5 -80 0
79 -79 0
80 -80 0
-24 -85 0
-24 -86 0
85 -85 0
86 -86 0
-43 -91 0
-43 -92 0
91 -91 0
92 -92 0
-62 -97 0
-62 -98 0
97 -97 0
98 -98 0
-6 -79 0
-6 -80 0
79 -79 0
80 -80 0
-25 -85 0
-25 -86 0
85 -85 0
86 -86 0
-44 -91 0
-44 -92 0
91 -91 0
92 -92 0
-63 -97 0
-63 -98 0
97 -97 0
98 -98 0
7 -79 0
7 -80 0
79 -79 0
80 -80 0
26 -85 0
26 -86 0
85 -85 0
86 -86 0
45 -91 0
45 -92 0
91 -91 0
92 -92 0
64 -97 0
64 -98 0
97 -97 0
98 -98 0
8 -79 0
8 -80 0
79 -79 0
80 -80 0
27 -85 0
27 -86 0
85 -85 0
86 -86 0
46 -91 0
46 -92 0
91 -91 0
92 -92 0
65 -97 0
65 -98 0
97 -97 0
98 -98 0
9 -79 0
9 -80 0
79 -79 0
80 -80 0
28 -85 0
28 -86 0
85 -85 0
86 -86 0
47 -91 0
47 -92 0
91 -91 0
92 -92 0
66 -97 0
66 -98 0
97 -97 0
98 -98 0
10 -79 0
10 -80 0
79 -79 0
80 -80 0
29 -85 0
29 -86 0
85 -85 0
86 -86 0
48 -91 0
48 -92 0
91 -91 0
92 -92 0
67 -97 0
67 -98 0
97 -97 0
98 -98 0
11 -79 0
11 -80 0
79 -79 0
80 -80 0
30 -85 0
30 -86 0
85 -85 0
86 -86 0
49 -91 0
49 -92 0
91 -91 0
92 -92 0
68 -97 0
68 -98 0
97 -97 0
98 -98 0
12 -79 0
12 -80 0
79 -79 0
80 -80 0
31 -85 0
31 -86 0
85 -85 0
86 -86 0
50 -91 0
50 -92 0
91 -91 0
92 -92 0
69 -97 0
69 -98 0
97 -97 0
98 -98 0
13 -108 -79 0
-13 108 -79 0
13 108 -80 0
-13 -108 -80 0
32 -108 -85 0
-32 108 -85 0
32 108 -86 0
-32 -108 -86 0
51 -108 -91 0
-51 108 -91 0
51 108 -92 0
-51 -108 -92 0
70 -108 -97 0
-70 108 -97 0
70 108 -98 0
-70 -108 -98 0
14 -79 0
14 -80 0
79 -79 0
80 -80 0
33 -85 0
33 -86 0
85 -85 0
86 -86 0
52 -91 0
52 -92 0
91 -91 0
92 -92 0
71 -97 0
71 -98 0
97 -97 0
98 -98 0
15 -109 -79 0
-15 109 -79 0
15 109 -80 0
-15 -109 -80 0
34 -109 -85 0
-34 109 -85 0
34 109 -86 0
-34 -109 -86 0
53 -109 -91 0
-53 109 -91 0
53 109 -92 0
-53 -109 -92 0
72 -109 -97 0
-72 109 -97 0
72 109 -98 0
-72 -109 -98 0
16 -79 0
16 -80 0
79 -79 0
80 -80 0
35 -85 0
35 -86 0
85 -85 0
86 -86 0
54 -91 0
54 -92 0
91 -91 0
92 -92 0
73 -97 0
73 -98 0
97 -97 0
98 -98 0
17 -79 0
17 -80 0
79 -79 0
80 -80 0
36 -85 0
36 -86 0
85 -85 0
86 -86 0
55 -91 0
55 -92 0
91 -91 0
92 -92 0
74 -97 0
74 -98 0
97 -97 0
98 -98 0
18 -79 0
18 -80 0
79 -79 0
80 -80 0
37 -85 0
37 -86 0
85 -85 0
86 -86 0
56 -91 0
56 -92 0
91 -91 0
92 -92 0
75 -97 0
75 -98 0
97 -97 0
98 -98 0
19 -79 0
19 -80 0
79 -79 0
80 -80 0
38 -85 0
38 -86 0
85 -85 0
86 -86 0
57 -91 0
57 -92 0
91 -91 0
92 -92 0
76 -97 0
76 -98 0
97 -97 0
98 -98 0
-160 79 0
160 -79 0
-161 80 0
160 -80 0
-160 -79 0
-161 -80 0
-166 79 160 0
166 -79 0
166 -160 0
-167 80 161 0
167 -80 0
167 -161 0
-166 -85 0
-167 -86 0
-172 85 166 0
172 -85 0
172 -166 0
-173 86 167 0
173 -86 0
173 -167 0
-172 -91 0
-173 -92 0
-178 91 172 0
178 -91 0
178 -172 0
-179 92 173 0
179 -92 0
179 -173 0
-178 -97 0
-179 -98 0
178 0
179 0
1 -110 -81 0
-1 110 -81 0
1 110 -82 0
-1 -110 -82 0
20 -110 -87 0
-20 110 -87 0
20 110 -88 0
-20 -110 -88 0
39 -110 -93 0
-39 110 -93 0
39 110 -94 0
-39 -110 -94 0
58 -110 -99 0
-58 110 -99 0
58 110 -100 0
-58 -110 -100 0
2 -111 -81 0
-2 111 -81 0
2 111 -82 0
-2 -111 -82 0
21 -111 -87 0
-21 111 -87 0
21 111 -88 0
-21 -111 -88 0
40 -111 -93 0
-40 111 -93 0
40 111 -94 0
-40 -111 -94 0
59 -111 -99 0
-59 111 -99 0
59 111 -100 0
-59 -111 -100 0
3 -81 0
3 -82 0
81 -81 0
82 -82 0
22 -87 0
22 -88 0
87 -87 0
88 -88 0
41 -93 0
41 -94 0
93 -93 0
94 -94 0
60 -99 0
60 -100 0
99 -99 0
100 -100 0
4 -81 0
4 -82 0
81 -81 0
82 -82 0
23 -87 0
23 -88 0
87 -87 0
88 -88 0
42 -93 0
42 -94 0
93 -93 0
94 -94 0
61 -99 0
61 -100 0
99 -99 0
100 -100 0
-5 -81 0
-5 -82 0
81 -81 0
82 -82 0
-24 -87 0
-24 -88 0
87 -87 0
88 -88 0
-43 -93 0
-43 -94 0
93 -93 0
94 -94 0
-62 -99 0
-62 -100 0
99 -99 0
100 -100 0
-6 -81 0
-6 -82 0
81 -81 0
82 -82 0
-25 -87 0
-25 -88 0
87 -87 0
88 -88 0
-44 -93 0
-44 -94 0
93 -93 0
94 -94 0
-63 -99 0
-63 -100 0
99 -99 0
100 -100 0
7 -112 -81 0
-7 112 -81 0
7 112 -82 0
-7 -112 -82 0
26 -112 -87 0
-26 112 -87 0
26 112 -88 0
-26 -112 -88 0
45 -112 -93 0
-45 112 -93 0
45 112 -94 0
-45 -112 -94 0
64 -112 -99 0
-64 112 -99 0
64 112 -100 0
-64 -112 -100 0
8 -113 -81 0
-8 113 -81 0
8 113 -82 0
-8 -113 -82 0
27 -113 -87 0
-27 113 -87 0
27 113 -88 0
-27 -113 -88 0
46 -113 -93 0
-46 113 -93 0
46 113 -94 0
-46 -113 -94 0
65 -113 -99 0
-65 113 -99 0
65 113 -100 0
-65 -113 -100 0
9 -81 0
9 -82 0
81 -81 0
82 -82 0
28 -87 0
28 -88 0
87 -87 0
88 -88 0
47 -93 0
47 -94 0
93 -93 0
94 -94 0
66 -99 0
66 -100 0
99 -99 0
100 -100 0
10 -81 0
10 -82 0
81 -81 0
82 -82 0
29 -87 0
29 -88 0
87 -87 0
88 -88 0
48 -93 0
48 -94 0
93 -93 0
94 -94 0
67 -99 0
67 -100 0
99 -99 0
100 -100 0
11 -81 0
11 -82 0
81 -81 0
82 -82 0
30 -87 0
30 -88 0
87 -87 0
88 -88 0
49 -93 0
49 -94 0
93 -93 0
94 -94 0
68 -99 0
68 -100 0
99 -99 0
100 -100 0
12 -81 0
12 -82 0
81 -81 0
82 -82 0
31 -87 0
31 -88 0
87 -87 0
88 -88 0
50 -93 0
50 -94 0
93 -93 0
94 -94 0
69 -99 0
69 -100 0
99 -99 0
100 -100 0
13 -114 -81 0
-13 114 -81 0
13 114 -82 0
-13 -114 -82 0
32 -114 -87 0
-32 114 -87 0
32 114 -88 0
-32 -114 -88 0
51 -114 -93 0
-51 114 -93 0
51 114 -94 0
-51 -114 -94 0
70 -114 -99 0
-70 114 -99 0
70 114 -100 0
-70 -114 -100 0
14 -81 0
14 -82 0
81 -81 0
82 -82 0
33 -87 0
33 -88 0
87 -87 0
88 -88 0
52 -93 0
52 -94 0
93 -93 0
94 -94 0
71 -99 0
71 -100 0
99 -99 0
100 -100 0
15 -81 0
15 -82 0
81 -81 0
82 -82 0
34 -87 0
34 -88 0
87 -87 0
88 -88 0
53 -93 0
53 -94 0
93 -93 0
94 -94 0
72 -99 0
72 -100 0
99 -99 0
100 -100 0
16 -81 0
16 -82 0
81 -81 0
82 -82 0
35 -87 0
35 -88 0
87 -87 0
88 -88 0
54 -93 0
54 -94 0
93 -93 0
94 -94 0
73 -99 0
73 -100 0
99 -99 0
100 -100 0
17 -81 0
17 -82 0
81 -81 0
82 -82 0
36 -87 0
36 -88 0
87 -87 0
88 -88 0
55 -93 0
55 -94 0
93 -93 0
94 -94 0
74 -99 0
74 -100 0
99 -99 0
100 -100 0
18 -115 -81 0
-18 115 -81 0
18 115 -82 0
-18 -115 -82 0
37 -115 -87 0
-37 115 -87 0
37 115 -88 0
-37 -115 -88 0
56 -115 -93 0
-56 115 -93 0
56 115 -94 0
-56 -115 -94 0
75 -115 -99 0
-75 115 -99 0
75 115 -100 0
-75 -115 -100 0
19 -81 0
19 -82 0
81 -81 0
82 -82 0
38 -87 0
38 -88 0
87 -87 0
88 -88 0
57 -93 0
57 -94 0
93 -93 0
94 -94 0
76 -99 0
76 -100 0
99 -99 0
100 -100 0
-162 81 0
162 -81 0
-163 82 0
162 -82 0
-162 -81 0
-163 -82 0
-168 81 162 0
168 -81 0
168 -162 0
-169 82 163 0
169 -82 0
169 -163 0
-168 -87 0
-169 -88 0
-174 87 168 0
174 -87 0
174 -168 0
-175 88 169 0
175 -88 0
175 -169 0
-174 -93 0
-175 -94 0
-180 93 174 0
180 -93 0
180 -174 0
-181 94 175 0
181 -94 0
181 -175 0
-180 -99 0
-181 -100 0
180 0
181 0
